Route #1: 67 77 2 17 69 105 64 94 57
Route #2: 96 29 72 34 11 99 74
Route #3: 49 21 85 54 13 40 31 63 82
Route #4: 104 1 53 87 60 51 100 45
Route #5: 5 101 103 28 93 97 43 76
Route #6: 14 58 88 91 36 8 48 83
Route #7: 7 75 84 9 12 15 44
Route #8: 52 92 102 24 90 26 62
Route #9: 22 33
Route #10: 66 46 71 79 37 27 19 78
Route #11: 56 20 16 10 41 18 86
Route #12: 35 73 32 3 23 42 30 89 59
Route #13: 39 50 81 6 70 4 98 55
Route #14: 25 47 61 80 65 38 95 68
Cost 26381
